c This Formular is generated by mcnf
c
c    horn? no 
c    forced? no 
c    mixed sat? no 
c    clause length = 3 
c
p cnf 20  91 
 -19 -13 15 0
15 -18 -6 0
20 3 -17 0
-15 2 -17 0
-10 1 15 0
14 -2 20 0
-3 -15 13 0
-12 -17 5 0
11 -20 18 0
11 -1 19 0
11 -9 -17 0
-1 -10 11 0
12 3 17 0
9 -2 -8 0
-9 -3 -4 0
-6 4 9 0
13 11 -17 0
19 -11 15 0
17 16 9 0
-13 -15 10 0
-9 16 7 0
-4 20 19 0
-18 -5 -13 0
-9 -7 2 0
6 -7 18 0
10 14 -8 0
9 1 15 0
-7 12 -19 0
-13 14 17 0
-3 -12 -17 0
1 3 8 0
-4 18 -9 0
-19 -14 -7 0
8 -5 4 0
14 1 -2 0
-4 1 18 0
20 12 -5 0
4 8 -5 0
20 -13 -1 0
-13 11 20 0
8 -5 2 0
%
0

25 82 58 83 20 77 44 84 24 69 2 57 27 20 46 21 35 48 45 10
